units               real
atom_style          full
bond_style          harmonic
angle_style         harmonic
dihedral_style      harmonic
improper_style      cvff

comm_modify         vel yes

special_bonds       lj/coul 1 1 1

kspace_style        ewald 0.01
#kspace_modify       gewald 1e-50
#kspace_modify       compute no

neighbor            5 bin
neigh_modify        delay 0 every 1 check no page 50000000 one 5000000


read_data           meso_pa6x20.data


# dpd:              T cutoff seed
# coul/cut/soft:    n alpha_C cutoff
# lj/cut/soft:      n alpha_lj cutoff
pair_style          hybrid/overlay dpd 1 1 34387 &
                                   coul/long/soft 2 1 5 &
                                   lj/cut/soft 2 1 5

# coul/cut/soft: lambda
pair_coeff          1 1 coul/long/soft 0.25

# lj/cut/soft:   epsilon sigma lambda cutoff1 cutoff2
pair_coeff          1 1 lj/cut/soft 0.95  10 3 3

# dpd:           a gamma cutoff
pair_coeff          1 1 dpd 50000 5 0.99

mass * 1


bond_coeff 1 100000 1     # k r0

group fordump id 1:2880:10

thermo_style        custom step pe
thermo              1

fix                 1 all nvt temp 1 1 1000

dump                d0 fordump image 100 dumps/pa6x20.*.jpg type type view 90 0

timestep            0.01



label loop
variable a loop 10
    run 1000 start 0 stop 10000
    write_data dpd_d.*.data
    write_restart dpd_r.*.restart
    next a
jump SELF loop



unfix 1
